Problem:    12
Rows:       13
Columns:    32
Non-zeros:  96
Status:     OPTIMAL
Objective:  z = 5440 (MINimum)

   No.   Row name   St   Activity     Lower bound   Upper bound    Marginal
------ ------------ -- ------------- ------------- ------------- -------------
     1 Vincoli_offerta[1]
                    NS            30            30             =            21 
     2 Vincoli_offerta[2]
                    NS            40            40             =            16 
     3 Vincoli_offerta[3]
                    NS            20            20             =            19 
     4 Vincoli_offerta[4]
                    NS            35            35             =            20 
     5 Vincoli_offerta[5]
                    NS            40            40             =            19 
     6 Vincoli_offerta[6]
                    NS            30            30             =            21 
     7 Vincoli_offerta[7]
                    NS            25            25             =            26 
     8 Vincoli_offerta[8]
                    NS            50            50             =            28 
     9 Vincoli_domanda[1]
                    NS            70            70             =            -1 
    10 Vincoli_domanda[2]
                    NS            70            70             =            -4 
    11 Vincoli_domanda[3]
                    B             50            50             = 
    12 Vincoli_domanda[4]
                    NS            80            80             =         < eps
    13 z            B           5440                             

   No. Column name  St   Activity     Lower bound   Upper bound    Marginal
------ ------------ -- ------------- ------------- ------------- -------------
     1 x[1,1]       B             30             0               
     2 x[1,2]       NL             0             0                           8 
     3 x[1,3]       NL             0             0                           9 
     4 x[1,4]       NL             0             0                           7 
     5 x[2,1]       B              5             0               
     6 x[2,2]       B             35             0               
     7 x[2,3]       NL             0             0                          16 
     8 x[2,4]       NL             0             0                          10 
     9 x[3,1]       B             20             0               
    10 x[3,2]       NL             0             0                          26 
    11 x[3,3]       NL             0             0                          17 
    12 x[3,4]       NL             0             0                          18 
    13 x[4,1]       NL             0             0                          13 
    14 x[4,2]       NL             0             0                           7 
    15 x[4,3]       NL             0             0                          15 
    16 x[4,4]       B             35             0               
    17 x[5,1]       NL             0             0                          13 
    18 x[5,2]       NL             0             0                          25 
    19 x[5,3]       B             40             0               
    20 x[5,4]       NL             0             0                          19 
    21 x[6,1]       NL             0             0                          13 
    22 x[6,2]       NL             0             0                           5 
    23 x[6,3]       NL             0             0                          13 
    24 x[6,4]       B             30             0               
    25 x[7,1]       B             15             0               
    26 x[7,2]       NL             0             0                           7 
    27 x[7,3]       B             10             0               
    28 x[7,4]       NL             0             0                           1 
    29 x[8,1]       NL             0             0                           3 
    30 x[8,2]       B             35             0               
    31 x[8,3]       NL             0             0                          11 
    32 x[8,4]       B             15             0               

Karush-Kuhn-Tucker optimality conditions:

KKT.PE: max.abs.err = 0.00e+000 on row 0
        max.rel.err = 0.00e+000 on row 0
        High quality

KKT.PB: max.abs.err = 0.00e+000 on row 0
        max.rel.err = 0.00e+000 on row 0
        High quality

KKT.DE: max.abs.err = 7.11e-015 on column 32
        max.rel.err = 1.25e-016 on column 32
        High quality

KKT.DB: max.abs.err = 0.00e+000 on row 0
        max.rel.err = 0.00e+000 on row 0
        High quality

End of output
